datasets/2-dimensional/CL_02_25_07.vbp
2
1000 1000 
25
126 294 30
145 414 72
671 319 4
592 563 88
132 36 54
843 959 64
618 889 90
676 715 26
575 658 94
202 275 28
780 453 72
864 416 49
344 718 54
442 250 19
712 232 28
45 221 61
661 105 84
118 106 23
304 780 67
440 18 53
83 39 54
121 399 16
776 988 9
605 30 54
496 76 77
