datasets/2-dimensional-benchmark/CL_02_25_07.txt
1000 1000 
0 30 126 294 
1 72 145 414 
2 4 671 319 
3 88 592 563 
4 54 132 36 
5 64 843 959 
6 90 618 889 
7 26 676 715 
8 94 575 658 
9 28 202 275 
10 72 780 453 
11 49 864 416 
12 54 344 718 
13 19 442 250 
14 28 712 232 
15 61 45 221 
16 84 661 105 
17 23 118 106 
18 67 304 780 
19 53 440 18 
20 54 83 39 
21 16 121 399 
22 9 776 988 
23 54 605 30 
24 77 496 76 
